language ESSENCE' 1.0

letting network_ExplicitWithRepetitionR6_Flag be 4
letting network_ExplicitWithRepetitionR6_Values_ExplicitVarSizeWithDummy be
        [[1, 2, 3, 4; int(1..4)], [1, 7, 8, 8; int(1..4)], [3, 5, 6, 7; int(1..4)], [8, 8, 8, 8; int(1..4)]; int(1..4)]
$ Visualisation for network_ExplicitWithRepetitionR6_Values_ExplicitVarSizeWithDummy
$ 1 2 3 4
$ 1 7 8 8
$ 3 5 6 7
$ 8 8 8 8

